NAME : block_42.697032.tour
COMMENT : Length = 697032
COMMENT : Found by LKH-3 [Keld Helsgaun] Mon Feb  2 23:14:35 2026
TYPE : TOUR
DIMENSION : 191
TOUR_SECTION
181
186
189
190
187
182
175
165
153
139
127
115
104
93
81
65
46
29
15
6
16
30
47
66
82
94
105
116
128
140
154
166
176
183
188
184
177
167
155
141
129
117
106
95
83
67
48
31
17
7
8
18
32
49
68
84
96
107
118
130
142
156
168
178
169
157
143
131
119
108
109
98
97
85
69
50
33
19
9
3
10
20
34
51
70
86
87
99
110
111
100
88
72
71
52
35
21
11
4
5
12
22
36
53
54
73
89
101
112
123
122
134
145
133
121
120
132
144
158
2
191
1
146
159
147
148
160
170
171
161
149
135
124
136
150
162
172
179
185
180
173
163
151
137
125
113
102
91
90
78
79
63
44
43
62
61
77
76
60
59
75
74
58
57
56
55
37
38
39
40
23
24
41
42
25
26
27
13
14
28
45
64
80
92
103
114
126
138
152
164
174
-1
EOF
